transportation1.lp
\* Problem: Transportation 1 - Miss Daisy *\

Minimize
 z: + 7 x11 + 9 x12 + x13 + 12 x14 + 7 x15 + 4 x16 + 4 x21 + 5 x22
 + 12 x23 + x24 + 3 x25 + 8 x26

Subject To
 c1: + x16 + x15 + x14 + x13 + x12 + x11 >= 2500
 c2: + x26 + x25 + x24 + x23 + x22 + x21 >= 2000
 c3: - x21 - x11 >= -1400
 c4: - x22 - x12 >= -1560
 c5: - x23 - x13 >= -400
 c6: - x24 - x14 >= -150
 c7: - x25 - x15 >= -870
 c8: - x26 - x16 >= -620

Generals
 x11
 x12
 x13
 x14
 x15
 x16
 x21
 x22
 x23
 x24
 x25
 x26

End
