glpk/solutions/transportation1.sol
Transportation 1 - Miss Daisy
z = 21060.0
x11 = 1400.0
x12 = 80.0
x13 = 400.0
x14 = 0.0
x15 = 0.0
x16 = 620.0
x21 = 0.0
x22 = 980.0
x23 = 0.0
x24 = 150.0
x25 = 870.0
x26 = 0.0
